17	4
9	11	11	16	
0	0	0	0	0	3	2	3	4	
5	0	0	5	0	3	7	17	17	
6	0	10	0	0	2	5	10	
2	0	0	0	2	3	6	8	9	
8	0	0	0	5	1	12	
50	8	0	0	0	2	17	17	
100	0	0	4	0	3	15	16	17	
225	1	0	0	0	2	11	17	
25	0	0	0	10	1	17	
25	0	6	0	0	3	13	14	17	
150	0	0	4	0	1	17	
175	0	0	0	9	1	16	
3	0	0	0	9	1	17	
8	0	0	9	0	2	17	17	
7	7	0	0	0	1	17	
5	0	5	0	0	1	17	
0	0	0	0	0	0	
